coords = array2d(1..34, 1..2, [348, 626, 518, 733, 770, 449, 241, 346, 147,
    254, 822, 321, 328, 124, 983, 444, 646, 951, 832, 18, 655, 636,
    630, 698, 224, 801, 842, 640, 193, 408, 636, 476, 890, 677, 521,
    786, 763, 494, 743, 598, 515, 564, 694, 933, 189, 24, 105, 205,
    819, 765, 169, 591, 68, 809, 285, 171, 735, 629, 153, 769, 496,
    821, 96, 13, 540, 194, 126, 973]);

n = 34;

